SYSTEM = MgSiON

 Startparameter for this Run:
   NWRITE =      2;   LPETIM=F    write-flag & timer
   ISTART =      0    job   : 0-new  1-cont  2-samecut
   LWAVE  =  .FALSE.
   LCHARG  =  .FALSE.

 Electronic Relaxation 1
   ENCUT  =   600.00 EV
   NELM   =  100;
   EDIFF  =   1E-05   stopping-criterion for ELM
   MAXMIX =   35

 Ionic Relaxation
   NSW    = 1      number of steps for IOM
   NBLOCK =      1;   KBLOCK =     1    inner block; outer block
   ISYM   =      0
   ISIF   =      2

   POTIM  =   1.00    time-step for ion-motion
   TEBEG  =   4000 ;   TEEND=4000 initial temperature
   SMASS  =   0.00    Nose mass-parameter (am)
   NPACO  =   104
   APACO  =   10.4

 DOS related values:
   ISMEAR =     -1;   SIGMA  =   0.34   broadening in eV -4-tet -1-fermi 0-gaus

 Electronic Relaxation 2
   IALGO  =      48    algorithm
   LREAL  =      A
   NPAR   =      4
